87 52 23 97 71 77 
2 90 84 
21 94 96 36 
10 50 64 
73 45 33 5 62 15 32 58 99 54 25 
57 86 9 24 95 55 74 100 35 43 
19 
82 61 27 12 47 22 38 8 76 40 
88 11 66 69 41 67 14 
63 
28 65 31 72 68 81 83 89 37 46 59 4 70 48 1 
39 17 30 56 85 
75 92 20 3 93 26 60 49 80 
29 7 98 44 79 51 78 42 18 53 6 91 16 34 13 
